c   #vars: 75   #clauses: 337   #literals: 932
c 
p cnf 75 337
-1 -2 0
-3 -4 0
-5 -6 0
9 -41 67 68 0
14 67 68 -72 0
-10 -11 0
-12 -13 0
14 48 -60 -72 0
10 11 35 36 0
10 11 45 46 0
27 28 74 75 0
19 20 69 70 0
-15 -16 0
-17 -18 0
-19 -20 0
-21 -22 0
-23 -24 0
8 25 26 -67 0
-25 -26 0
-27 -28 0
-29 -30 0
-31 -32 0
-33 -34 0
-35 -36 0
-37 -38 0
-39 -40 0
-41 -42 0
-43 -44 0
1 2 72 73 0
31 32 72 73 0
23 24 61 62 0
-45 -46 0
10 11 -25 52 0
-49 -50 0
7 35 36 -41 0
17 18 -29 71 0
-53 -54 0
-55 -56 0
-57 -58 0
-59 -60 0
-61 -62 0
1 2 29 30 0
-63 -64 0
-65 -66 0
17 18 63 64 0
-67 -68 0
-69 -70 0
-72 -73 0
12 13 57 58 0
-74 -75 0
5 6 33 34 0
-1 -29 0
-2 -30 0
3 4 41 42 0
-1 -37 0
-2 -38 0
-1 -65 0
-2 -66 0
17 18 74 75 0
-1 -72 0
-2 -73 0
8 25 26 -49 0
-1 -74 0
-2 -75 0
15 16 33 34 0
-3 -39 0
-4 -40 0
21 22 47 -67 0
-3 -41 0
-4 -42 0
17 18 39 40 0
-3 -48 0
-5 10 11 52 0
-12 25 26 51 0
-3 -57 0
-4 -58 0
8 -49 67 68 0
-3 -65 0
-4 -66 0
-5 -31 0
-6 -32 0
-5 -33 0
-6 -34 0
23 24 67 68 0
-5 -45 0
-6 -46 0
23 24 29 30 0
17 18 -21 71 0
-6 -52 0
3 4 57 58 0
9 -25 67 68 0
-7 -36 0
9 41 42 -67 0
-7 -42 0
39 40 59 60 0
9 -25 41 42 0
-7 -56 0
21 22 57 58 0
-8 -26 0
21 22 -29 71 0
-8 -50 0
21 22 74 75 0
27 28 72 73 0
-8 -68 0
10 11 61 62 0
14 -48 67 68 0
-9 -26 0
8 -25 49 50 0
-5 25 26 52 0
-9 -42 0
39 40 53 54 0
-10 25 26 52 0
-9 -68 0
12 13 72 73 0
-10 -25 0
-11 -26 0
17 18 43 44 0
-10 -35 0
-11 -36 0
17 18 59 60 0
-10 -45 0
-11 -46 0
41 42 57 58 0
-21 29 30 71 0
-11 -52 0
-10 -61 0
-11 -62 0
12 13 37 38 0
-10 -65 0
-11 -66 0
-10 -69 0
-11 -70 0
-12 -29 0
-13 -30 0
49 50 53 54 0
-12 -37 0
-13 -38 0
7 -41 55 56 0
-13 -51 0
-12 -57 0
-13 -58 0
15 16 57 58 0
-12 -63 0
-13 -64 0
10 11 69 70 0
-12 -72 0
-13 -73 0
-4 14 48 -72 0
5 6 -25 52 0
31 32 74 75 0
-14 -68 0
23 24 43 44 0
-14 -73 0
-14 48 59 60 0
25 26 59 60 0
-4 14 48 -67 0
35 36 57 58 0
14 48 -60 -67 0
-15 -33 0
-16 -34 0
15 16 37 38 0
-15 -37 0
-16 -38 0
1 2 37 38 0
-15 -43 0
-16 -44 0
37 38 55 56 0
-15 -57 0
-16 -58 0
-17 21 22 71 0
-15 -59 0
-16 -60 0
19 20 53 54 0
-17 -39 0
-18 -40 0
19 20 55 56 0
-17 -43 0
-18 -44 0
49 50 57 58 0
-17 -59 0
-18 -60 0
-17 -63 0
-18 -64 0
-18 -71 0
-17 -74 0
-18 -75 0
21 22 37 38 0
-19 -25 0
-20 -26 0
-19 -45 0
-20 -46 0
33 34 61 62 0
-19 -53 0
-20 -54 0
-19 -55 0
-20 -56 0
-19 -69 0
-20 -70 0
-19 -74 0
-20 -75 0
21 22 31 32 0
-21 -31 0
-22 -32 0
33 34 53 54 0
-21 -37 0
-22 -38 0
-25 39 40 51 0
-22 -47 0
31 32 61 62 0
-21 -57 0
-22 -58 0
12 13 29 30 0
-22 -71 0
5 6 31 32 0
-21 -74 0
-22 -75 0
-23 -29 0
-24 -30 0
35 36 53 54 0
-23 -31 0
-24 -32 0
19 20 45 46 0
-23 -43 0
-24 -44 0
47 57 58 -67 0
3 4 48 -60 0
-23 -61 0
-24 -62 0
-23 -67 0
-24 -68 0
10 11 25 26 0
45 46 65 66 0
47 -57 67 68 0
10 11 65 66 0
-21 47 67 68 0
9 25 26 -67 0
7 -35 55 56 0
-26 -51 0
21 22 47 -57 0
-17 29 30 71 0
-26 -52 0
45 46 69 70 0
-25 -59 0
-26 -60 0
-27 -65 0
-28 -66 0
19 20 25 26 0
-27 -69 0
-28 -70 0
23 24 31 32 0
-27 -72 0
-28 -73 0
3 4 65 66 0
-27 -74 0
-28 -75 0
9 25 26 -41 0
-30 -71 0
-31 -61 0
-32 -62 0
35 36 63 64 0
-31 -72 0
-32 -73 0
35 36 55 56 0
-31 -74 0
-32 -75 0
-33 -53 0
-34 -54 0
-33 -61 0
-34 -62 0
-35 -53 0
-36 -54 0
1 2 74 75 0
-35 -55 0
-36 -56 0
15 16 43 44 0
-35 -57 0
-36 -58 0
19 20 74 75 0
-35 -63 0
-36 -64 0
-37 -55 0
-38 -56 0
7 35 36 -55 0
-4 48 59 60 0
1 2 65 66 0
7 41 42 -55 0
-40 -51 0
8 49 50 -67 0
-39 -53 0
-40 -54 0
43 44 69 70 0
-39 -59 0
-40 -60 0
27 28 65 66 0
-41 -57 0
-42 -58 0
14 -48 72 73 0
-43 -63 0
-44 -64 0
45 46 61 62 0
-43 -65 0
-44 -66 0
5 6 45 46 0
-43 -69 0
-44 -70 0
8 -25 67 68 0
12 13 -39 51 0
43 44 63 64 0
12 13 -25 51 0
14 -67 72 73 0
-45 -61 0
-46 -62 0
15 16 59 60 0
-45 -65 0
-46 -66 0
49 50 59 60 0
-45 -69 0
-46 -70 0
-12 39 40 51 0
-47 -58 0
27 28 69 70 0
7 -35 41 42 0
-47 -68 0
-21 47 57 58 0
3 4 -14 48 0
12 13 63 64 0
-48 -59 0
5 6 -10 52 0
25 26 -39 51 0
-49 -53 0
-50 -54 0
43 44 65 66 0
-49 -57 0
-50 -58 0
3 4 39 40 0
-49 -59 0
-50 -60 0
